4 
5  32 45 59 
6  08 23 30 38 45 50 55 
7  00 05 10 15 20 25 30 35 40 45 50 55 
8  00 05 10 15 20 25 30 35 40 45 50 57 
9  05 13 21 28 36 43 50 58 
10  05 13 20 28 35 43 50 58 
11  05 13 20 28 35 43 50 58 
12  05 13 20 28 35 43 50 58 
13  05 13 21 29 36 44 51 59 
14  06 13 21 29 36 44 50 58 
15  05 10 15 20 25 30 35 40 45 50 55 
16  00 05 10 15 20 25 30 35 40 45 50 55 
17  00 05 10 15 20 25 30 35 40 45 50 55 
18  00 05 10 15 20 25 30 35 40 45 54 
19  00 07 13 20 28 35 43 51 58 
20  05 13 20 28 35 42 50 58 
21  05 12 20 28 35 43 50 58 
22  05 14 29 46 
23  00 20 35 54 
0 
1 
